Optimal - objective value 4.00000000
      7 x_0_7                      1                       0
     23 x_1_10                     1                       0
     32 x_2_6                      1                       0
     45 x_3_6                      1                       0
     58 x_4_6                      1                       0
     72 x_5_7                      1                       0
     84 x_6_6                      1                       0
    101 x_7_10                     1                       0
    111 x_8_7                      1                       0
    127 x_9_10                     1         2.22044604925031e-16
    137 x_10_7                     1                       0
    145 x_11_2                     1                       0
    166 x_12_10                    1                       0
    171 y_2                        1                       1
    175 y_6                        1         1.75541673428835e-16
    176 y_7                        1                       0
    179 y_10                       1                       0
